language ESSENCE' 1.0
$ minion Nodes: 1
$ minion TotalTime: 0.000754
$ Savile Row TotalTime: 0.292
letting pain_tuple1 be [2, 1, 2;int(1..3)]
letting pain_tuple3_tuple2 be [3, 2, 2;int(1..3)]
letting pain_tuple3_tuple1 be [7, 8, 7;int(1..3)]
letting pain_tuple2_tuple1 be [5, 4, 4;int(1..3)]
letting pain_tuple2_tuple2 be [10, 11, 12;int(1..3)]
